50, 655
3, 34
7, 39
5, 6
19, 37
6, 34
40, 9
25, 3
33, 47
46, 32
18, 27
26, 12
50, 3
45, 19
31, 43
47, 26
38, 21
44, 15
41, 24
8, 41
22, 37
45, 6
17, 48
30, 32
10, 26
39, 21
36, 17
2, 15
6, 37
26, 28
2, 37
47, 25
3, 6
37, 3
35, 34
23, 13
9, 31
21, 27
18, 38
20, 20
34, 45
32, 31
25, 1
37, 47
17, 5
27, 28
23, 31
49, 29
25, 34
50, 15
11, 21
